481 5
10 10 10 10 10 

0 0 0 0 0 0 5 2 44 86 128 140 
0 0 0 0 0 0 2 3 5 
2 2 1 0 1 1 1 4 
1 5 7 0 10 5 2 7 6 
7 4 4 0 1 6 1 6 
4 8 9 0 5 6 4 20 13 10 9 
9 10 3 0 6 6 3 13 10 8 
2 4 5 0 7 2 1 9 
5 1 4 0 6 2 3 16 15 11 
2 5 6 0 9 3 3 23 15 14 
4 7 4 0 5 4 2 23 12 
4 3 5 0 6 4 1 14 
4 1 5 0 6 8 1 14 
7 7 6 0 6 4 3 26 25 17 
2 6 4 0 4 7 3 26 25 17 
1 9 3 0 4 2 3 26 25 17 
8 10 4 0 4 6 2 21 18 
6 6 4 0 9 5 1 19 
1 8 6 0 3 5 4 37 30 29 22 
1 4 6 0 7 4 3 29 28 23 
3 3 7 0 9 8 2 30 22 
6 4 4 0 4 1 1 24 
5 4 8 0 4 5 4 39 37 31 26 
4 3 3 0 2 9 4 33 32 27 249 
10 6 2 0 3 6 3 37 32 27 
7 3 5 0 4 6 2 35 30 
2 5 8 0 5 4 1 28 
6 5 4 0 4 5 2 39 31 
8 9 5 0 4 3 2 34 31 
8 4 10 0 5 8 1 32 
5 4 3 0 5 3 2 41 35 
3 4 3 0 2 6 2 42 34 
4 4 9 0 4 8 2 42 34 
3 10 4 0 5 3 2 41 36 
2 5 6 0 9 9 2 42 36 
5 5 4 0 5 5 1 38 
1 2 6 0 3 6 1 38 
10 6 5 0 4 7 1 40 
8 3 7 0 5 5 1 41 
5 5 5 0 5 5 1 43 
4 4 2 0 5 2 1 43 
2 2 4 0 5 6 1 43 
0 0 0 0 0 0 1 470 
0 0 0 0 0 0 2 45 49 
6 5 1 1 1 0 1 46 
2 4 7 5 4 0 2 48 47 
3 5 4 4 7 0 4 64 56 54 50 
2 4 3 3 6 0 5 74 71 64 55 53 
8 4 5 8 4 0 2 54 52 
2 3 9 5 4 0 1 51 
1 6 6 4 3 0 2 55 52 
7 5 3 8 6 0 2 71 53 
6 2 7 6 6 0 3 73 67 57 
6 4 8 4 5 0 3 73 55 231 
9 2 3 9 6 0 3 67 61 58 
9 5 6 4 6 0 4 73 67 61 59 
6 8 7 3 6 0 2 61 58 
3 4 8 7 3 0 2 77 59 
2 2 5 5 5 0 1 60 
8 5 4 8 6 0 5 84 83 72 70 62 
5 5 4 3 4 0 3 72 70 62 
4 5 5 1 4 0 2 82 63 
7 5 2 7 4 0 2 76 65 
4 9 1 6 7 0 3 76 73 68 
1 2 6 3 4 0 1 66 
1 2 2 8 6 0 1 68 
4 9 5 6 4 0 1 68 
1 5 6 2 4 0 2 80 69 
9 10 5 5 5 0 2 81 75 
6 2 4 3 3 0 2 80 76 
5 10 4 8 7 0 2 80 73 
8 6 6 4 6 0 2 80 79 
5 5 6 5 6 0 2 81 79 
10 5 5 4 7 0 2 80 79 
9 2 5 6 3 0 1 78 
9 6 5 7 5 0 1 78 
5 8 5 4 6 0 1 78 
6 6 5 7 4 0 1 79 
8 6 4 3 4 0 1 85 
3 8 6 6 5 0 1 85 
8 1 4 5 6 0 1 85 
10 3 5 4 7 0 1 85 
8 2 10 5 5 0 1 85 
1 10 4 4 6 0 1 85 
0 0 0 0 0 0 1 470 
0 0 0 0 0 0 2 87 91 
5 0 1 4 1 2 1 88 
6 0 6 2 9 5 3 90 89 217 
10 0 6 3 5 3 3 99 95 92 
5 0 6 10 8 4 2 107 93 
3 0 3 6 3 10 2 95 93 
9 0 3 3 7 7 1 93 
9 0 8 2 5 4 3 100 98 94 
6 0 7 9 7 4 2 109 96 
8 0 4 2 6 6 2 109 98 
8 0 5 8 5 2 1 97 
1 0 4 6 3 4 3 112 108 101 
10 0 4 7 4 7 3 112 108 101 
6 0 8 3 7 6 3 112 108 101 
4 0 5 4 5 6 4 117 112 104 103 
10 0 6 6 7 9 3 117 104 102 
1 0 6 4 5 7 1 103 
10 0 6 6 6 7 4 126 121 114 105 
4 0 5 5 6 6 3 121 114 105 
9 0 5 4 3 5 1 106 
9 0 4 5 5 1 3 125 119 110 
2 0 7 5 5 6 3 115 114 112 
4 0 4 6 8 6 2 126 111 
1 0 5 4 6 4 2 118 112 
3 0 4 5 5 7 1 111 
4 0 3 8 5 4 1 113 
6 0 8 5 4 4 3 124 119 116 
7 0 8 4 5 8 2 123 115 
7 0 6 3 5 4 2 119 116 
3 0 5 8 3 4 2 124 118 
9 0 3 3 7 4 2 123 120 
6 0 4 5 3 3 1 118 
2 0 5 3 4 1 1 120 
8 0 2 7 4 3 1 120 
9 0 6 7 6 5 1 122 
1 0 4 8 6 7 1 123 
7 0 3 2 2 6 1 127 
5 0 6 6 2 5 1 127 
9 0 5 5 4 9 1 127 
7 0 6 4 3 2 1 127 
3 0 4 3 6 3 1 127 
0 0 0 0 0 0 1 470 
0 0 0 0 0 0 2 129 131 
7 0 0 1 0 0 3 132 130 318 
8 0 0 5 0 0 3 135 134 133 
2 0 0 5 0 0 2 134 132 
2 0 0 6 0 0 2 138 135 
4 0 0 2 0 0 2 138 136 
3 0 0 6 0 0 2 138 137 
2 0 0 3 0 0 1 136 
8 0 0 6 0 0 1 137 
3 0 0 6 0 0 1 139 
1 0 0 10 0 0 1 139 
0 0 0 0 0 0 5 182 214 226 258 290 
0 0 0 0 0 0 2 141 145 
6 1 2 0 2 1 1 142 
9 6 4 0 7 9 2 144 143 
7 4 5 0 3 4 3 151 149 146 
6 2 8 0 6 2 3 161 149 147 
7 9 4 0 5 7 2 149 147 
8 4 3 0 5 6 1 147 
9 3 4 0 1 4 3 154 153 148 
1 4 9 0 2 3 2 163 150 
5 6 6 0 5 6 2 163 153 
7 2 6 0 4 4 1 152 
2 7 2 0 5 7 1 152 
10 1 6 0 4 4 3 165 162 155 
3 3 4 0 7 4 3 165 162 155 
8 7 5 0 3 6 5 170 165 162 158 157 
4 8 4 0 3 5 4 170 158 156 363 
5 5 3 0 6 4 1 157 
6 7 8 0 7 5 3 180 168 159 
5 8 8 0 10 5 2 168 159 
5 2 4 0 6 6 2 175 160 
8 4 2 0 7 3 3 179 173 164 
8 4 6 0 5 6 2 169 165 
6 7 5 0 4 9 2 180 166 
9 5 6 0 5 6 2 172 165 
6 3 3 0 3 4 1 166 
8 10 5 0 3 4 2 178 168 
5 4 4 0 3 3 1 167 
2 8 5 0 4 9 2 177 169 
3 3 5 0 4 8 2 173 171 
3 3 10 0 7 8 2 178 172 
6 8 4 0 6 5 2 178 172 
2 6 5 0 5 4 2 177 174 
2 4 3 0 8 7 1 174 
4 4 6 0 5 5 1 174 
7 9 7 0 6 5 1 176 
6 4 4 0 5 3 1 177 
2 8 3 0 7 3 1 181 
9 2 4 0 5 8 1 181 
6 4 5 0 9 5 1 181 
6 7 8 0 2 2 1 181 
3 4 5 0 6 1 1 181 
0 0 0 0 0 0 1 470 
0 0 0 0 0 0 7 183 207 208 209 210 211 212 
3 0 1 0 1 1 2 206 184 
9 0 5 0 3 10 3 205 204 185 
10 0 4 0 3 6 1 186 
5 0 5 0 5 2 2 203 187 
9 0 7 0 6 4 1 188 
6 0 6 0 5 9 2 202 189 
2 0 6 0 4 2 3 201 200 190 
3 0 6 0 7 4 1 191 
10 0 5 0 4 8 1 192 
5 0 5 0 2 8 3 199 198 193 
10 0 6 0 4 4 1 194 
6 0 5 0 7 9 1 195 
1 0 7 0 10 5 1 196 
9 0 3 0 8 6 1 197 
3 0 3 0 3 5 1 213 
6 0 3 0 3 2 1 213 
3 0 6 0 6 3 1 213 
3 0 5 0 6 3 1 213 
3 0 9 0 6 4 1 213 
2 0 6 0 5 3 1 213 
6 0 3 0 3 5 1 213 
7 0 6 0 7 7 1 213 
7 0 4 0 2 1 1 213 
9 0 4 0 7 8 1 213 
7 0 8 0 3 3 1 213 
5 0 7 0 5 6 1 213 
4 0 3 0 3 5 1 213 
2 0 5 0 9 7 2 213 357 
9 0 6 0 7 4 1 213 
9 0 1 0 6 6 1 213 
0 0 0 0 0 0 1 470 
0 0 0 0 0 0 4 215 217 223 224 
4 0 1 0 0 0 1 216 
6 0 5 0 0 0 3 222 221 218 
7 0 7 0 0 0 2 222 221 
1 0 7 0 0 0 1 219 
6 0 4 0 0 0 1 220 
8 0 5 0 0 0 1 225 
8 0 6 0 0 0 2 225 333 
4 0 5 0 0 0 1 225 
4 0 4 0 0 0 1 225 
6 0 6 0 0 0 1 225 
0 0 0 0 0 0 5 322 344 366 388 410 
0 0 0 0 0 0 3 227 228 240 
4 1 2 1 0 0 2 246 229 
4 6 6 6 0 0 2 246 229 
10 4 7 10 0 0 2 233 230 
1 5 2 3 0 0 2 236 231 
7 6 5 6 0 0 2 247 232 
5 4 10 3 0 0 2 243 234 
5 5 5 2 0 0 2 236 235 
2 2 6 9 0 0 1 235 
2 5 7 7 0 0 3 251 242 237 
4 4 5 2 0 0 3 251 248 238 
2 3 3 6 0 0 2 248 238 
6 6 4 4 0 0 1 239 
2 7 3 4 0 0 1 241 
8 6 5 6 0 0 1 241 
9 3 5 5 0 0 2 255 244 
1 7 4 4 0 0 2 255 244 
10 7 7 4 0 0 4 256 255 250 245 
7 4 7 9 0 0 4 256 250 245 364 
10 4 7 10 0 0 3 254 253 249 
2 6 5 6 0 0 3 254 253 249 
7 9 5 4 0 0 2 253 252 
9 4 4 4 0 0 1 249 
10 4 3 4 0 0 1 252 
7 6 4 5 0 0 1 253 
8 7 3 2 0 0 1 255 
6 1 6 7 0 0 1 257 
1 4 6 6 0 0 1 257 
2 9 5 3 0 0 1 257 
9 5 5 4 0 0 1 257 
1 6 4 4 0 0 1 257 
0 0 0 0 0 0 1 470 
0 0 0 0 0 0 3 259 260 288 
1 1 2 0 0 1 2 287 261 
10 4 4 0 0 10 2 287 261 
7 2 7 0 0 4 2 265 262 
8 3 5 0 0 1 2 269 263 
9 6 4 0 0 3 2 286 264 
9 7 4 0 0 6 2 276 266 
2 6 4 0 0 5 2 269 267 
7 3 5 0 0 4 1 267 
7 2 10 0 0 3 3 280 272 268 
3 4 4 0 0 8 2 277 270 
10 4 6 0 0 2 2 280 270 
7 5 6 0 0 4 1 271 
9 2 5 0 0 6 2 285 273 
1 6 5 0 0 5 2 285 274 
3 2 4 0 0 3 1 274 
9 8 3 0 0 4 4 283 279 275 384 
6 6 6 0 0 6 3 284 282 278 
8 4 4 0 0 9 2 283 278 
4 8 5 0 0 6 1 278 
9 10 4 0 0 5 1 281 
2 6 3 0 0 6 1 282 
6 7 5 0 0 7 1 285 
4 3 8 0 0 4 1 289 
9 3 10 0 0 8 1 289 
9 8 7 0 0 3 1 289 
6 3 3 0 0 5 1 289 
4 7 6 0 0 9 1 289 
7 6 3 0 0 4 1 289 
10 6 2 0 0 3 1 289 
3 8 6 0 0 6 1 289 
0 0 0 0 0 0 1 470 
0 0 0 0 0 0 3 291 305 320 
5 0 1 0 1 1 2 319 292 
10 0 6 0 6 5 3 317 316 293 
5 0 4 0 5 7 1 294 
2 0 3 0 5 5 2 315 295 
4 0 5 0 2 7 3 314 313 296 
10 0 5 0 4 5 2 312 297 
9 0 3 0 5 5 1 298 
9 0 6 0 6 5 2 311 299 
8 0 4 0 4 2 1 300 
8 0 7 0 5 8 2 310 301 
6 0 4 0 3 6 3 309 308 302 
4 0 1 0 2 8 3 307 303 364 
1 0 7 0 6 6 1 304 
9 0 3 0 7 6 1 306 
1 0 5 0 6 7 1 318 
2 0 4 0 10 5 1 321 
6 0 8 0 6 6 1 321 
8 0 6 0 4 4 1 321 
4 0 9 0 4 6 1 321 
4 0 2 0 3 6 1 321 
3 0 10 0 6 4 1 321 
4 0 5 0 4 4 1 321 
7 0 4 0 7 3 1 321 
10 0 6 0 7 4 1 321 
6 0 4 0 4 6 1 321 
9 0 6 0 6 4 1 321 
5 0 5 0 4 7 1 321 
3 0 3 0 5 2 1 321 
6 0 10 0 6 4 1 321 
7 0 4 0 7 2 1 321 
0 0 0 0 0 0 1 470 
0 0 0 0 0 0 3 323 326 329 
4 4 0 0 0 1 2 331 324 
7 4 0 0 0 4 2 342 325 
1 2 0 0 0 9 2 332 327 
1 4 0 0 0 7 4 338 337 332 331 
10 4 0 0 0 4 2 328 444 
1 3 0 0 0 7 3 341 337 330 
9 5 0 0 0 4 2 331 330 
2 6 0 0 0 3 3 340 335 333 
9 2 0 0 0 7 2 340 335 
2 4 0 0 0 5 1 333 
3 8 0 0 0 5 1 334 
10 5 0 0 0 5 1 336 
9 6 0 0 0 5 1 336 
3 10 0 0 0 4 1 339 
7 6 0 0 0 3 1 340 
7 4 0 0 0 5 1 341 
7 8 0 0 0 5 1 343 
7 4 0 0 0 9 1 343 
7 5 0 0 0 4 1 343 
8 6 0 0 0 4 1 343 
0 0 0 0 0 0 1 470 
0 0 0 0 0 0 3 345 348 351 
1 1 0 1 0 0 2 353 346 
2 6 0 2 0 0 2 356 347 
1 3 0 4 0 0 2 354 349 
1 7 0 6 0 0 4 361 357 354 353 
9 6 0 8 0 0 1 350 
7 4 0 5 0 0 3 364 361 352 
2 6 0 3 0 0 3 364 353 352 
5 2 0 5 0 0 3 363 359 355 
10 4 0 7 0 0 2 363 359 
8 7 0 3 0 0 1 355 
8 8 0 7 0 0 1 358 
3 8 0 6 0 0 3 364 362 412 
9 4 0 5 0 0 2 364 362 
8 7 0 4 0 0 1 360 
6 7 0 5 0 0 1 360 
1 4 0 4 0 0 1 362 
5 3 0 5 0 0 1 363 
9 2 0 3 0 0 1 365 
3 7 0 7 0 0 1 365 
7 4 0 10 0 0 1 365 
0 0 0 0 0 0 1 470 
0 0 0 0 0 0 4 367 371 374 386 
10 1 0 1 0 0 2 380 368 
1 10 0 5 0 0 2 385 369 
4 6 0 5 0 0 4 384 379 377 370 
3 5 0 5 0 0 2 383 372 
5 6 0 7 0 0 5 384 383 380 379 378 
9 7 0 7 0 0 1 373 
2 5 0 4 0 0 2 382 375 
2 8 0 6 0 0 2 383 376 
3 1 0 7 0 0 1 376 
2 4 0 7 0 0 1 378 
8 5 0 3 0 0 1 378 
7 4 0 7 0 0 1 381 
10 2 0 2 0 0 1 382 
3 8 0 7 0 0 2 381 415 
6 6 0 6 0 0 1 387 
5 3 0 2 0 0 1 387 
6 7 0 4 0 0 1 387 
2 3 0 4 0 0 1 387 
8 3 0 6 0 0 1 387 
2 6 0 5 0 0 1 387 
0 0 0 0 0 0 1 470 
0 0 0 0 0 0 4 389 391 407 408 
3 0 0 2 1 0 2 406 390 
6 0 0 2 3 0 4 405 404 403 392 
7 0 0 3 3 0 3 404 403 392 
7 0 0 9 6 0 3 402 401 393 
4 0 0 2 5 0 2 400 394 
9 0 0 3 6 0 1 395 
10 0 0 2 6 0 1 396 
10 0 0 6 5 0 1 397 
3 0 0 5 10 0 1 398 
9 0 0 5 4 0 1 399 
10 0 0 6 5 0 1 409 
10 0 0 6 5 0 1 409 
10 0 0 10 6 0 1 409 
7 0 0 4 3 0 1 409 
5 0 0 6 5 0 1 409 
2 0 0 4 4 0 1 409 
7 0 0 6 5 0 1 409 
10 0 0 4 6 0 1 409 
7 0 0 9 4 0 1 409 
10 0 0 6 8 0 1 409 
0 0 0 0 0 0 1 470 
0 0 0 0 0 0 2 411 412 
9 1 0 0 0 0 2 415 413 
8 8 0 0 0 0 2 420 415 
4 5 0 0 0 0 1 414 
7 4 0 0 0 0 2 419 416 
5 4 0 0 0 0 1 416 
9 6 0 0 0 0 2 418 417 
1 7 0 0 0 0 1 421 
1 4 0 0 0 0 1 421 
5 6 0 0 0 0 1 421 
10 5 0 0 0 0 1 421 
0 0 0 0 0 0 4 422 434 446 458 
0 0 0 0 0 0 5 423 425 428 431 432 
9 1 0 0 0 0 2 430 424 
9 6 0 0 0 0 1 426 
2 3 0 0 0 0 1 426 
6 6 0 0 0 0 1 427 
7 5 0 0 0 0 1 429 
9 5 0 0 0 0 1 430 
2 6 0 0 0 0 1 433 
8 8 0 0 0 0 1 433 
7 5 0 0 0 0 1 433 
4 5 0 0 0 0 1 433 
0 0 0 0 0 0 1 470 
0 0 0 0 0 0 5 435 439 442 443 444 
1 1 0 0 0 0 1 436 
7 6 0 0 0 0 1 437 
7 5 0 0 0 0 2 441 438 
4 5 0 0 0 0 1 440 
3 6 0 0 0 0 1 440 
5 10 0 0 0 0 1 445 
5 5 0 0 0 0 1 445 
4 7 0 0 0 0 1 445 
7 1 0 0 0 0 1 445 
8 4 0 0 0 0 1 445 
0 0 0 0 0 0 1 470 
0 0 0 0 0 0 4 447 449 450 454 
1 0 1 0 0 0 1 448 
7 0 6 0 0 0 2 452 451 
10 0 7 0 0 0 2 456 452 
4 0 7 0 0 0 1 451 
9 0 7 0 0 0 2 456 455 
9 0 2 0 0 0 1 453 
4 0 5 0 0 0 1 455 
4 0 7 0 0 0 1 455 
8 0 6 0 0 0 1 457 
5 0 2 0 0 0 1 457 
0 0 0 0 0 0 1 470 
0 0 0 0 0 0 3 459 464 465 
6 0 1 0 0 0 2 462 460 
5 0 5 0 0 0 2 468 461 
2 0 6 0 0 0 2 467 463 
7 0 6 0 0 0 2 467 466 
7 0 7 0 0 0 1 466 
5 0 5 0 0 0 1 467 
8 0 3 0 0 0 1 466 
4 0 7 0 0 0 1 469 
6 0 5 0 0 0 1 469 
10 0 5 0 0 0 1 469 
0 0 0 0 0 0 1 470 
0 0 0 0 0 0 3 471 474 476 
1 0 2 0 0 0 2 475 472 
7 0 4 0 0 0 2 479 473 
6 0 5 0 0 0 2 480 477 
3 0 4 0 0 0 2 479 477 
9 0 3 0 0 0 2 479 478 
3 0 5 0 0 0 1 477 
2 0 7 0 0 0 1 478 
2 0 8 0 0 0 1 481 
10 0 2 0 0 0 1 481 
6 0 10 0 0 0 1 481 
0 0 0 0 0 0 0 
